(declare-const t1n Int)
(declare-const t2n Int)
(declare-const t3n Int)
(declare-const t4n Int)
(declare-const t5n Int)
(declare-const t6n Int)
(declare-const t1p Int)
(declare-const t2p Int)
(declare-const t3p Int)
(declare-const t4p Int)
(declare-const t5p Int)
(declare-const t6p Int)
(declare-const t1c Int)
(declare-const t2c Int)
(declare-const t3c Int)
(declare-const t4c Int)
(declare-const t5c Int)
(declare-const t6c Int)
(declare-const t1d Int)
(declare-const t2d Int)
(declare-const t3d Int)
(declare-const t4d Int)
(declare-const t5d Int)
(declare-const t6d Int)
(declare-const t1s Int)
(declare-const t2s Int)
(assert
  (and
(< (+ (* 800 t1n) (* 1300 t1p) (* 1500 t1c) (* 400 t1d) (* 1000 t1s)) 8000)
(< (+ (* 800 t2n) (* 1300 t2p) (* 1500 t2c) (* 400 t2d) (* 1000 t2s)) 8000)
(< (+ (* 800 t3n) (* 1300 t3p) (* 1500 t3c) (* 400 t3d)) 8000)
(< (+ (* 800 t4n) (* 1300 t4p) (* 1500 t4c) (* 400 t4d)) 8000)
(< (+ (* 800 t5n) (* 1300 t5p) (* 1500 t5c) (* 400 t5d)) 8000)
(< (+ (* 800 t6n) (* 1300 t6p) (* 1500 t6c) (* 400 t6d)) 8000)
(< (t1n t1p t1c t1d t1s) 8)
(< (+ t2n t2p t2c t2d t2s) 8)
(< (+ t3n t3p t3c t3d) 8)
(< (+ t4n t4p t4c t4d) 8)
(< (+ t5n t5p t5c t5d) 8)
(< (+ t6n t6p t6c t6d) 8)
(= (+ t1n t2n t3n t4n t5n t6n) 4)
(= (+ t1s t2s) 8)
(= (+ t1c t2c t3c t4c t5c t6c) 8)
(= (+ t1d t2d t3d t4d t5d t6d) 12)
(< (+ t1p t1n) 2)
(< (+ t2p t2n) 2)
(< (+ t3p t3n) 2)
(< (+ t4p t4n) 2)
(< (+ t5p t5n) 2)
(< (+ t6p t6n) 2)
(< t1n 2) 
(< t2n 2)
(< t3n 2)
(< t4n 2)
(< t5n 2)
(< t6n 2)
  )
)
(check-sat)
(get-model)